============================[ Problem Statistics ]=============================|                                                                             ||  Number of variables:          4242                                         ||  Number of clauses:            9759                                         ||  Parse time:                   0.17 s                                       ||                                                                             |============================[ Search Statistics ]==============================| Conflicts |          ORIGINAL         |          LEARNT          | Progress ||           |    Vars  Clauses Literals |    Limit  Clauses Lit/Cl |          |==============================================================================================================================================================restarts              : 1conflicts             : 97             (326 /sec)decisions             : 182            (0.00 % random) (611 /sec)propagations          : 8254           (27698 /sec)conflict literals     : 5101           (95.99 % deleted)CPU time              : 0.298 sSATISFIABLE